language ESSENCE' 1.0

letting jobs = 102
letting horizon = 818
letting resourcesRenew = 2
letting resourcesNonrenew = 2
letting resourceLimits = [28, 30, 168, 145]
letting successors = [[2, 4, 5, 6, 7, 8, 9, 12, 14, 17, 31], [24, 19, 18, 13, 10, 3], [32, 27, 26, 23, 22, 21, 16, 15, 11], [32, 30, 27, 22, 21, 20, 19, 18, 13], [34, 32, 30, 27, 26, 22, 21, 16, 15], [28, 27, 22, 21, 13, 11], [28, 27, 21, 13, 11], [30, 28, 26, 23, 22, 18], [36, 32, 13], [42, 30, 21, 20], [42, 41, 39, 36, 34, 33, 30, 29, 25], [42, 41, 39, 36, 33, 30, 29, 25], [46, 34, 33, 29, 23], [54, 42, 39, 33, 29, 28], [33, 20], [42, 39, 36, 33, 25], [41, 39, 29, 28], [46, 41, 40, 39, 34, 29], [42, 39, 33, 29, 25], [41, 29, 28], [54, 40, 39, 36, 35, 33], [46, 41, 40, 39, 29], [42, 41, 39, 25], [54, 40, 34, 29], [54, 50, 44, 43, 40, 38, 35], [49, 46, 43, 39, 35, 33], [54, 29], [50, 40, 37, 36], [50, 44, 43, 38, 35], [53, 50, 48, 46, 43, 40, 37], [53, 48, 44, 43, 40, 37], [56, 54, 53, 52, 49, 48, 45, 44], [50, 48, 44, 37], [53, 50, 49, 37], [53, 48, 37], [46, 43, 38], [61, 60, 59, 57, 56, 52, 51, 45], [61, 58, 57, 55, 53, 52, 49, 48], [61, 59, 57, 53, 52, 48, 45], [68, 62, 58, 57, 56, 55, 51, 49], [68, 64, 59, 58, 55, 54, 52, 51], [61, 60, 59, 58, 56, 52, 47], [69, 64, 61, 60, 59, 57, 55, 51], [64, 62, 61, 58, 55, 51], [63, 58, 47], [80, 70, 69, 68, 67, 65, 64, 63, 62, 60], [69, 68, 64, 62, 55], [69, 68, 62, 51], [80, 69, 66, 65, 64, 60, 59], [80, 69, 66, 64, 60, 59], [80, 72, 71, 70, 67, 66, 63], [80, 69, 66, 63, 62], [80, 71, 68, 67, 66, 65], [70, 65, 57], [80, 71, 67, 66, 65], [71, 67, 66, 65], [80, 76, 75, 74, 72, 66], [80, 76, 75, 72, 69], [101, 78, 76, 73, 67], [101, 75, 74, 72, 71], [75, 74, 68, 66], [75, 74, 72, 71], [86, 79, 77, 76, 73], [91, 88, 81, 79, 78, 77, 74], [91, 84, 79, 74, 73], [91, 86, 84, 82, 81, 78, 77], [88, 79, 75, 74], [101, 90, 88, 86, 78, 76], [84, 78, 77, 74], [99, 91, 90, 86, 84, 82, 81, 78], [88, 86, 83, 78, 76], [99, 88, 86, 85, 84, 81, 79], [100, 99, 90, 88, 87, 85, 82, 81], [100, 99, 90, 87, 86, 85, 83, 82], [100, 99, 91, 90, 85, 81], [99, 96, 91, 85, 84, 82], [101, 100, 99, 98, 97, 96, 94, 90, 87], [100, 96, 94, 87, 85], [100, 97, 90, 87, 83], [99, 96, 95, 94, 88], [89, 83], [98, 95, 94, 93, 89], [96, 95, 94, 93, 92], [97, 94, 87], [98, 97, 92], [94, 93, 92], [95, 93], [93, 92], [92], [92], [94], [102], [102], [102], [102], [102], [102], [102], [102], [102], [102], []]
letting durations = [[0], [4, 8, 10], [2, 3, 6], [2, 4, 5], [2, 6, 9], [2, 3, 5], [5, 8, 9], [2, 4, 7], [1, 7, 8], [5, 5, 9], [2, 3, 5], [6, 7, 9], [1, 6, 8], [1, 5, 10], [3, 6, 7], [1, 5, 7], [4, 5, 6], [6, 9, 9], [4, 5, 10], [3, 3, 7], [5, 6, 9], [6, 7, 10], [3, 4, 10], [2, 3, 8], [3, 5, 9], [1, 2, 5], [1, 3, 6], [4, 5, 8], [3, 9, 9], [7, 7, 10], [6, 7, 9], [1, 5, 10], [4, 5, 6], [1, 2, 8], [4, 7, 7], [1, 6, 10], [2, 6, 7], [2, 4, 10], [4, 5, 8], [2, 7, 8], [5, 10, 10], [6, 6, 10], [1, 3, 9], [3, 6, 10], [3, 4, 7], [4, 8, 9], [4, 6, 10], [2, 7, 8], [3, 5, 6], [3, 7, 10], [7, 9, 10], [4, 7, 10], [1, 7, 9], [2, 2, 4], [5, 6, 8], [1, 4, 5], [3, 5, 5], [5, 8, 9], [2, 7, 8], [1, 9, 10], [6, 6, 7], [2, 3, 9], [6, 7, 8], [3, 3, 7], [1, 5, 6], [1, 3, 8], [3, 6, 10], [1, 7, 10], [4, 8, 10], [4, 5, 7], [2, 3, 8], [5, 6, 10], [5, 7, 8], [2, 8, 9], [2, 4, 7], [3, 8, 9], [1, 2, 5], [5, 9, 10], [1, 4, 10], [3, 7, 8], [1, 5, 9], [2, 7, 10], [6, 7, 8], [1, 8, 10], [4, 8, 9], [4, 7, 8], [4, 7, 7], [3, 4, 7], [3, 4, 8], [3, 4, 8], [2, 3, 8], [8, 8, 9], [2, 3, 8], [4, 5, 8], [3, 7, 8], [2, 3, 4], [2, 5, 10], [1, 8, 9], [2, 4, 10], [1, 5, 6], [2, 4, 8], [0]]
letting resourceUsage = [[[0, 0, 0, 0]], [[2, 4, 3, 0], [1, 4, 2, 0], [1, 4, 1, 0]], [[4, 3, 0, 10], [3, 1, 0, 6], [1, 1, 0, 4]], [[5, 2, 0, 3], [4, 2, 6, 0], [3, 2, 0, 1]], [[4, 2, 0, 8], [3, 1, 6, 0], [1, 1, 0, 4]], [[4, 4, 9, 0], [4, 2, 0, 5], [2, 2, 6, 0]], [[2, 3, 5, 0], [2, 2, 5, 0], [2, 1, 4, 0]], [[5, 5, 6, 0], [3, 3, 0, 5], [3, 3, 1, 0]], [[3, 3, 0, 10], [3, 3, 0, 7], [1, 2, 3, 0]], [[3, 4, 0, 5], [3, 3, 6, 0], [3, 3, 4, 0]], [[4, 5, 0, 6], [3, 4, 5, 0], [2, 4, 0, 2]], [[3, 4, 4, 0], [2, 3, 0, 8], [1, 2, 0, 6]], [[5, 3, 8, 0], [3, 2, 7, 0], [1, 2, 6, 0]], [[2, 3, 0, 6], [1, 2, 8, 0], [1, 2, 7, 0]], [[5, 3, 6, 0], [3, 2, 0, 4], [3, 2, 0, 3]], [[2, 5, 0, 3], [2, 2, 3, 0], [2, 2, 0, 1]], [[5, 5, 10, 0], [4, 4, 0, 8], [3, 4, 3, 0]], [[4, 4, 0, 8], [4, 3, 1, 0], [4, 3, 0, 7]], [[3, 2, 0, 3], [3, 1, 0, 2], [3, 1, 4, 0]], [[3, 4, 0, 10], [3, 4, 8, 0], [1, 4, 4, 0]], [[4, 5, 7, 0], [2, 4, 3, 0], [1, 3, 1, 0]], [[2, 4, 6, 0], [2, 2, 0, 4], [1, 2, 2, 0]], [[4, 5, 6, 0], [3, 3, 0, 7], [3, 3, 2, 0]], [[2, 3, 2, 0], [2, 2, 0, 7], [2, 1, 0, 6]], [[2, 3, 8, 0], [2, 3, 0, 5], [2, 2, 1, 0]], [[3, 3, 6, 0], [2, 3, 0, 6], [1, 3, 3, 0]], [[4, 3, 0, 7], [3, 3, 6, 0], [2, 3, 0, 3]], [[5, 4, 0, 9], [3, 2, 3, 0], [1, 1, 0, 5]], [[4, 1, 0, 4], [3, 1, 5, 0], [3, 1, 0, 4]], [[5, 2, 6, 0], [3, 2, 0, 7], [3, 2, 0, 5]], [[1, 2, 8, 0], [1, 2, 0, 3], [1, 1, 0, 2]], [[2, 1, 0, 4], [1, 1, 4, 0], [1, 1, 0, 1]], [[4, 1, 8, 0], [3, 1, 0, 7], [3, 1, 5, 0]], [[5, 2, 0, 9], [3, 2, 0, 5], [3, 2, 0, 4]], [[4, 4, 0, 8], [4, 3, 3, 0], [4, 3, 0, 7]], [[4, 3, 7, 0], [3, 1, 0, 3], [3, 1, 0, 2]], [[2, 3, 6, 0], [2, 1, 5, 0], [1, 1, 0, 2]], [[5, 3, 6, 0], [3, 2, 6, 0], [3, 2, 0, 3]], [[3, 2, 8, 0], [3, 2, 0, 7], [3, 2, 2, 0]], [[4, 4, 6, 0], [3, 3, 0, 8], [3, 3, 2, 0]], [[5, 4, 0, 6], [5, 3, 8, 0], [5, 1, 0, 5]], [[4, 1, 4, 0], [2, 1, 0, 4], [1, 1, 4, 0]], [[2, 2, 5, 0], [1, 1, 5, 0], [1, 1, 4, 0]], [[1, 4, 8, 0], [1, 2, 6, 0], [1, 1, 0, 5]], [[3, 4, 5, 0], [2, 2, 3, 0], [2, 1, 0, 1]], [[3, 3, 7, 0], [2, 1, 0, 2], [2, 1, 0, 1]], [[5, 2, 0, 10], [4, 2, 0, 7], [4, 1, 2, 0]], [[4, 2, 4, 0], [3, 1, 2, 0], [3, 1, 1, 0]], [[4, 4, 0, 8], [3, 4, 0, 7], [1, 3, 0, 5]], [[3, 3, 0, 8], [3, 2, 3, 0], [3, 1, 0, 8]], [[3, 5, 6, 0], [3, 2, 2, 0], [2, 1, 2, 0]], [[4, 2, 0, 5], [4, 1, 0, 3], [3, 1, 8, 0]], [[2, 2, 0, 7], [2, 2, 0, 4], [2, 1, 0, 2]], [[4, 1, 4, 0], [3, 1, 0, 2], [3, 1, 0, 1]], [[3, 3, 10, 0], [3, 2, 4, 0], [1, 2, 0, 4]], [[5, 5, 9, 0], [3, 3, 0, 2], [3, 2, 0, 2]], [[4, 5, 3, 0], [2, 4, 0, 2], [2, 4, 1, 0]], [[4, 4, 0, 7], [3, 4, 4, 0], [2, 4, 0, 7]], [[2, 2, 0, 6], [1, 2, 4, 0], [1, 2, 1, 0]], [[3, 3, 9, 0], [2, 2, 7, 0], [1, 1, 4, 0]], [[2, 4, 4, 0], [2, 3, 0, 3], [2, 3, 0, 2]], [[2, 5, 0, 7], [1, 3, 0, 7], [1, 3, 1, 0]], [[4, 1, 8, 0], [3, 1, 0, 4], [3, 1, 6, 0]], [[5, 4, 0, 9], [5, 3, 3, 0], [5, 2, 0, 5]], [[3, 3, 0, 4], [2, 1, 0, 3], [2, 1, 0, 2]], [[3, 5, 3, 0], [3, 4, 0, 8], [3, 3, 1, 0]], [[5, 4, 6, 0], [4, 3, 4, 0], [4, 3, 2, 0]], [[3, 4, 3, 0], [2, 2, 2, 0], [2, 2, 1, 0]], [[3, 4, 8, 0], [3, 4, 0, 2], [2, 4, 0, 1]], [[5, 5, 0, 9], [5, 4, 6, 0], [5, 4, 0, 5]], [[3, 4, 8, 0], [3, 3, 3, 0], [1, 2, 3, 0]], [[4, 5, 9, 0], [3, 3, 9, 0], [2, 1, 9, 0]], [[1, 2, 4, 0], [1, 1, 4, 0], [1, 1, 3, 0]], [[5, 4, 0, 10], [4, 3, 0, 10], [3, 3, 1, 0]], [[5, 4, 2, 0], [4, 4, 2, 0], [4, 4, 0, 3]], [[1, 5, 4, 0], [1, 4, 4, 0], [1, 2, 2, 0]], [[5, 4, 0, 9], [4, 4, 0, 5], [4, 4, 0, 3]], [[4, 2, 10, 0], [4, 2, 8, 0], [4, 2, 6, 0]], [[4, 1, 6, 0], [2, 1, 6, 0], [2, 1, 2, 0]], [[3, 5, 3, 0], [1, 4, 3, 0], [1, 4, 2, 0]], [[4, 3, 9, 0], [4, 3, 0, 4], [4, 1, 0, 2]], [[2, 4, 0, 6], [1, 3, 0, 5], [1, 2, 3, 0]], [[2, 5, 8, 0], [2, 2, 0, 3], [1, 1, 1, 0]], [[3, 4, 0, 8], [3, 4, 9, 0], [2, 3, 0, 1]], [[3, 2, 0, 9], [2, 2, 5, 0], [2, 2, 2, 0]], [[1, 3, 8, 0], [1, 2, 6, 0], [1, 2, 5, 0]], [[4, 4, 3, 0], [3, 4, 2, 0], [2, 4, 0, 1]], [[1, 4, 9, 0], [1, 4, 5, 0], [1, 3, 0, 6]], [[3, 3, 5, 0], [3, 2, 0, 7], [3, 1, 0, 6]], [[3, 4, 6, 0], [2, 3, 3, 0], [2, 3, 0, 3]], [[4, 4, 0, 10], [3, 3, 1, 0], [2, 3, 0, 4]], [[4, 2, 0, 5], [4, 1, 5, 0], [3, 1, 0, 2]], [[1, 2, 0, 8], [1, 2, 0, 7], [1, 1, 0, 7]], [[4, 3, 9, 0], [3, 1, 0, 3], [3, 1, 0, 2]], [[4, 5, 0, 8], [4, 4, 0, 7], [2, 4, 0, 4]], [[3, 3, 0, 4], [3, 2, 0, 2], [3, 1, 0, 2]], [[4, 3, 0, 8], [4, 2, 4, 0], [4, 2, 3, 0]], [[2, 2, 0, 4], [1, 1, 0, 4], [1, 1, 0, 3]], [[5, 4, 2, 0], [4, 3, 0, 6], [3, 3, 2, 0]], [[4, 4, 0, 8], [4, 4, 6, 0], [3, 3, 0, 5]], [[3, 4, 3, 0], [2, 3, 2, 0], [1, 2, 0, 3]], [[0, 0, 0, 0]]]
